% demand
num_movements = 37;
loading_factor = [1800, 1400, 1400, 850, 850, 1200, 1300, 1650, 1000, 1550, 1650, 950, 800, 1500, 900, 950, 1750, 800, 800, 1450, 1850, 1300, 1150, 1000, 1450, 1900, 1800, 1100, 1100, 900, 850, 1150, 1400, 1250, 1900, 1500, 800];
pickup_time = [0, 0, 0, 0, 0, 0, 0, 0, 1, 2, 2, 2, 2, 3, 3, 3, 3, 3, 5, 5, 5, 6, 6, 6, 7, 7, 7, 8, 9, 9, 10, 10, 10, 10, 10, 11, 11];
delivery_time = [3, 2, 2, 5, 2, 2, 1, 5, 2, 5, 3, 5, 3, 5, 5, 5, 5, 5, 8, 7, 9, 8, 7, 8, 8, 8, 8, 10, 12, 13, 13, 13, 13, 13, 13, 13, 13];

% transporter definition
total_capacity = 11000;
num_decks = 4;
capacity = [3000, 3000, 1000, 4000];

% ways out of decks
num_ways_out = 2;
paths_out = array3d(decks, ways_out, decks, [
% ways out of deck d1
2, 4, 0, 0, 3, 4, 0, 0, 

% ways out of deck d2
4, 0, 0, 0, 0, 0, 0, 0,	

% ways out of deck d3
4, 0, 0, 0, 0, 0, 0, 0,	

% ways out of deck d4
0, 0, 0, 0,	0, 0, 0, 0,	

]);

